p tw 28 42
1 12
1 14
1 22
2 18
2 20
2 28
3 8
3 12
3 20
4 13
4 21
4 24
5 9
5 12
5 17
6 11
6 17
6 26
7 14
7 16
7 27
8 16
8 23
9 14
9 23
10 17
10 23
10 27
11 19
11 24
13 21
13 28
15 22
15 26
15 27
16 18
18 25
19 24
19 28
20 25
21 25
22 26
